&control
	calculation = 'scf'
	restart_mode = 'from_scratch'
	prefix = 'hBN'
	outdir = './outdir'
	pseudo_dir = '/home/francislee/Downloads/QuantumEspresso/SSSP_precision_pseudos'
/
&system
	ibrav = 4,
	celldm(1) = 4.7319,
	celldm(3) = 2.7093,
	nat = 4,
	ntyp = 2,
	ecutwfc = 50
/
&electrons
	conv_thr = 1e-10
/
ATOMIC_SPECIES
  B  10.81  B_pbe_v1.01.uspp.F.UPF
  N  14.0067  N.oncvpsp.upf
  
ATOMIC_POSITIONS (crystal)
  B  0.33333333  0.66666667  0.25000000
  B  0.66666667  0.33333333  0.75000000
  N  0.33333333  0.66666667  0.75000000
  N  0.66666667  0.33333333  0.25000000
  
K_POINTS (automatic)
  12  12  6  1  1  1
