&control
    calculation = 'scf'
    restart_mode='from_scratch'
    prefix = 'si'
    outdir = './outdir'
    pseudo_dir = '/home/xiaoal/Downloads/QuantumEspresso/sssp_precision'
/
&system
    ibrav=1, celldm(1) =10.2871, 
    nat=8, ntyp=1,
    ecutwfc=50
/
&electrons
    conv_thr=1e-10
/
ATOMIC_SPECIES
 Si  28.0855  Si.pbe-n-rrkjus_psl.1.0.0.UPF

ATOMIC_POSITIONS (alat)
  Si  0.75000000  0.75000000  0.25000000
  Si  0.00000000  0.50000000  0.50000000
  Si  0.75000000  0.25000000  0.75000000
  Si  0.00000000  0.00000000  0.00000000
  Si  0.25000000  0.75000000  0.75000000
  Si  0.50000000  0.50000000  0.00000000
  Si  0.25000000  0.25000000  0.25000000
  Si  0.50000000  0.00000000  0.50000000
K_POINTS (automatic)
  6 6 6 1 1 1
